*SENSE:Maximize
NAME          MODEL
ROWS
 N  OBJ
 L  C0000000
 L  C0000001
 L  C0000002
 L  C0000003
 L  C0000004
COLUMNS
    X0000000  C0000000   5.000000000000e-01
    X0000000  C0000001   1.000000000000e+00
    X0000000  C0000002   1.000000000000e+00
    X0000000  OBJ        1.000000000000e+00
    X0000001  C0000000   2.500000000000e-01
    X0000001  C0000001   1.200000000000e+00
    X0000001  C0000003   1.000000000000e+00
    X0000001  OBJ        1.000000000000e+00
    X0000002  C0000000   1.500000000000e-01
    X0000002  C0000001   1.600000000000e+00
    X0000002  C0000004   1.000000000000e+00
    X0000002  OBJ        1.000000000000e+00
RHS
    RHS       C0000000   2.000000000000e+00
    RHS       C0000001   1.000000000000e+01
    RHS       C0000002   7.000000000000e+00
    RHS       C0000003   9.000000000000e+00
    RHS       C0000004   1.300000000000e+01
BOUNDS
